25 100
  0     40.0     50.0       0.0     1236.0      0.0       0.0       0.0  
  1     45.0     68.0      760.0    1120.0     90.0       5.0      10.0  
  2     45.0     70.0      668.0    1028.0     90.0      23.0      30.0  
  3     42.0     66.0      16.0      376.0     90.0       4.0      10.0  
  4     42.0     68.0      575.0     935.0     90.0       4.0      10.0  
  5     42.0     65.0      15.0      375.0     90.0       1.0      10.0  
  6     40.0     69.0      482.0     842.0     90.0      20.0      20.0  
  7     40.0     66.0      18.0      378.0     90.0       9.0      20.0  
  8     38.0     68.0      110.0     470.0     90.0       2.0      20.0  
  9     38.0     70.0      390.0     750.0     90.0       9.0      10.0  
 10     35.0     66.0      204.0     564.0     90.0       1.0      10.0  
 11     35.0     69.0      297.0     657.0     90.0       6.0      10.0  
 12     25.0     85.0      507.0     867.0     90.0      10.0      20.0  
 13     22.0     75.0      30.0      390.0     90.0       4.0      30.0  
 14     22.0     85.0      414.0     774.0     90.0       9.0      10.0  
 15     20.0     80.0      227.0     587.0     90.0      38.0      40.0  
 16     20.0     85.0      322.0     682.0     90.0      28.0      40.0  
 17     18.0     75.0      33.0      393.0     90.0       0.0      20.0  
 18     15.0     75.0      37.0      397.0     90.0       5.0      20.0  
 19     15.0     80.0      132.0     492.0     90.0       3.0      10.0  
 20     30.0     50.0      10.0      370.0     90.0       9.0      10.0  
 21     30.0     52.0      760.0    1120.0     90.0      12.0      20.0  
 22     28.0     52.0      668.0    1028.0     90.0      14.0      20.0  
 23     28.0     55.0      575.0     935.0     90.0       9.0      10.0  
 24     25.0     50.0      15.0      375.0     90.0       1.0      10.0  
 25     25.0     52.0      17.0      377.0     90.0      37.0      40.0  
